<number of tasks>
50

<cycle time>
1000

<order strength>
0.595


<task times>
1 132
2 69
3 146
4 55
5 119
6 100
7 139
8 245
9 116
10 113
11 174
12 331
13 192
14 153
15 96
16 67
17 175
18 210
19 80
20 75
21 154
22 88
23 200
24 64
25 208
26 293
27 51
28 127
29 137
30 150
31 36
32 245
33 235
34 86
35 291
36 50
37 203
38 44
39 61
40 110
41 96
42 56
43 194
44 196
45 267
46 80
47 73
48 242
49 133
50 24

<precedence relations>
1,5
1,6
1,7
2,5
2,8
3,8
3,10
4,10
5,9
6,9
6,10
7,9
7,10
8,9
9,11
9,12
9,13
9,14
10,21
12,17
13,15
13,16
13,27
14,15
14,16
15,20
15,21
16,21
17,18
17,19
17,22
17,24
17,26
18,27
18,28
19,49
20,24
21,23
21,24
21,26
21,44
22,25
23,29
23,40
24,28
25,29
25,30
25,38
27,31
27,47
27,48
28,32
28,33
28,34
29,35
29,37
30,31
30,34
30,36
31,42
31,44
31,45
32,38
33,41
34,39
34,40
34,49
35,41
35,42
35,43
37,39
38,47
39,48
40,46
42,46
43,50
45,49

<end>
